MARKOV
1069
 2 2 2 2 2 2 2 2 2 2 2 2 2 2 2 2 2 2 2 2 2 2 2 2 2 2 2 2 2 2 2 2 2 2 2 2 2 2 2 2 2 2 2 2 2 2 2 2 2 2 2 2 2 2 2 2 2 2 2 2 2 2 2 2 2 2 2 2 2 2 2 2 2 2 2 2 2 2 2 2 2 2 2 2 2 2 2 2 2 2 2 2 2 2 2 2 2 2 2 2 2 2 2 2 2 2 2 2 2 2 2 2 2 2 2 2 2 2 2 2 2 2 2 2 2 2 2 2 2 2 2 2 2 2 2 2 2 2 2 2 2 2 2 2 2 2 2 2 2 2 2 2 2 2 2 2 2 2 2 2 2 2 2 2 2 2 2 2 2 2 2 2 2 2 2 2 2 2 2 2 2 2 2 2 2 2 2 2 2 2 2 2 2 2 2 2 2 2 2 2 2 2 2 2 2 2 2 2 2 2 2 2 2 2 2 2 2 2 2 2 2 2 2 2 2 2 2 2 2 2 2 2 2 2 2 2 2 2 2 2 2 2 2 2 2 2 2 2 2 2 2 2 2 2 2 2 2 2 2 2 2 2 2 2 2 2 2 2 2 2 2 2 2 2 2 2 2 2 2 2 2 2 2 2 2 2 2 2 2 2 2 2 2 2 2 2 2 2 2 2 2 2 2 2 2 2 2 2 2 2 2 2 2 2 2 2 2 2 2 2 2 2 2 2 2 2 2 2 2 2 2 2 2 2 2 2 2 2 2 2 2 2 2 2 2 2 2 2 2 2 2 2 2 2 2 2 2 2 2 2 2 2 2 2 2 2 2 2 2 2 2 2 2 2 2 2 2 2 2 2 2 2 2 2 2 2 2 2 2 2 2 2 2 2 2 2 2 2 2 2 2 2 2 2 2 2 2 2 2 2 2 2 2 2 2 2 2 2 2 2 2 2 2 2 2 2 2 2 2 2 2 2 2 2 2 2 2 2 2 2 2 2 2 2 2 2 2 2 2 2 2 2 2 2 2 2 2 2 2 2 2 2 2 2 2 2 2 2 2 2 2 2 2 2 2 2 2 2 2 2 2 2 2 2 2 2 2 2 2 2 2 2 2 2 2 2 2 2 2 2 2 2 2 2 2 2 2 2 2 2 2 2 2 2 2 2 2 2 2 2 2 2 2 2 2 2 2 2 2 2 2 2 2 2 2 2 2 2 2 2 2 2 2 2 2 2 2 2 2 2 2 2 2 2 2 2 2 2 2 2 2 2 2 2 2 2 2 2 2 2 2 2 2 2 2 2 2 2 2 2 2 2 2 2 2 2 2 2 2 2 2 2 2 2 2 2 2 2 2 2 2 2 2 2 2 2 2 2 2 2 2 2 2 2 2 2 2 2 2 2 2 2 2 2 2 2 2 2 2 2 2 2 2 2 2 2 2 2 2 2 2 2 2 2 2 2 2 2 2 2 2 2 2 2 2 2 2 2 2 2 2 2 2 2 2 2 2 2 2 2 2 2 2 2 2 2 2 2 2 2 2 2 2 2 2 2 2 2 2 2 2 2 2 2 2 2 2 2 2 2 2 2 2 2 2 2 2 2 2 2 2 2 2 2 2 2 2 2 2 2 2 2 2 2 2 2 2 2 2 2 2 2 2 2 2 2 2 2 2 2 2 2 2 2 2 2 2 2 2 2 2 2 2 2 2 2 2 2 2 2 2 2 2 2 2 2 2 2 2 2 2 2 2 2 2 2 2 2 2 2 2 2 2 2 2 2 2 2 2 2 2 2 2 2 2 2 2 2 2 2 2 2 2 2 2 2 2 2 2 2 2 2 2 2 2 2 2 2 2 2 2 2 2 2 2 2 2 2 2 2 2 2 2 2 2 2 2 2 2 2 2 2 2 2 2 2 2 2 2 2 2 2 2 2 2 2 2 2 2 2 2 2 2 2 2 2 2 2 2 2 2 2 2 2 2 2 2 2 2 2 2 2 2 2 2 2 2 2 2 2 2 2 2 2 2 2 2 2 2 2 2 2 2 2 2 2 2 2 2 2 2 2 2 2 2 2 2 2 2 2 2 2 2 2 2 2 2 2 2 2 2 2 2 2 2 2 2 2 2 2 2 2 2 2 2 2 2 2 2 2 2 2 2 2 2 2 2 2 2 2 2 2 2 2 2 2 2 2 2 2 2 2 2 2 2 2 2 2 2 2 2 2 2 2 2 2 2 2 2 2 2 2 2 2 2 2 2 2 2 2 2 2 2 2 2 2 2 2 2 2 2 2 2 2 2 2 2 2 2 2 2 2 2 2 2 2 2 2 2 2 2 2 2 2 2 2 2 2 2 2 2 2 2 2 2 2 2 2 2 2 2 2 2 2 2 2 2 2 2 2 2 2 2 2 2 2 2 2 2
1077
3	350 374 1068 
1	1068 
3	350 379 1067 
3	101 1066 1067 
3	38 1065 1066 
3	132 1064 1065 
3	223 1063 1064 
3	53 1062 1063 
3	329 1061 1062 
3	110 1060 1061 
3	86 1059 1060 
3	336 1058 1059 
3	410 1057 1058 
3	221 1056 1057 
3	453 1055 1056 
3	301 1054 1055 
3	13 1053 1054 
3	154 1052 1053 
3	164 1051 1052 
3	158 1050 1051 
3	128 1049 1050 
3	451 1048 1049 
3	79 1047 1048 
3	242 1046 1047 
3	452 1045 1046 
3	107 1044 1045 
3	437 1043 1044 
3	383 1042 1043 
3	355 1041 1042 
3	260 1040 1041 
3	150 1039 1040 
3	442 1038 1039 
3	462 1037 1038 
3	77 1036 1037 
3	235 1035 1036 
3	354 1034 1035 
3	422 1033 1034 
3	292 1032 1033 
3	387 1031 1032 
3	17 1030 1031 
3	254 1029 1030 
3	212 1028 1029 
3	244 1027 1028 
3	15 1026 1027 
3	47 1025 1026 
3	25 1024 1025 
3	59 1023 1024 
3	398 1022 1023 
3	226 1021 1022 
3	281 1020 1021 
3	157 1019 1020 
3	39 1018 1019 
3	255 1017 1018 
3	233 1016 1017 
3	320 1015 1016 
3	45 1014 1015 
3	139 1013 1014 
3	369 1012 1013 
3	284 1011 1012 
3	131 1010 1011 
3	194 1009 1010 
3	95 1008 1009 
3	222 1007 1008 
3	78 1006 1007 
3	124 1005 1006 
3	464 1004 1005 
3	3 1003 1004 
3	471 1002 1003 
3	24 1001 1002 
3	332 1000 1001 
3	469 999 1000 
3	390 998 999 
3	250 997 998 
3	434 996 997 
3	440 995 996 
3	342 994 995 
3	384 993 994 
3	423 992 993 
3	417 991 992 
3	104 990 991 
3	155 989 990 
3	40 988 989 
3	197 987 988 
3	406 986 987 
3	115 985 986 
3	196 984 985 
3	377 983 984 
3	29 982 983 
3	32 981 982 
3	75 980 981 
3	394 979 980 
3	405 978 979 
3	303 977 978 
3	402 976 977 
3	140 975 976 
3	61 974 975 
3	341 973 974 
3	207 972 973 
3	146 971 972 
3	111 970 971 
3	69 969 970 
3	229 968 969 
3	446 967 968 
3	311 966 967 
3	102 965 966 
3	72 964 965 
3	312 963 964 
3	258 962 963 
3	438 961 962 
3	94 960 961 
3	125 959 960 
3	278 958 959 
3	82 957 958 
3	407 956 957 
3	145 955 956 
3	317 954 955 
3	298 953 954 
3	12 952 953 
3	400 951 952 
3	11 950 951 
3	251 949 950 
3	457 948 949 
3	50 947 948 
3	70 946 947 
3	435 945 946 
3	183 944 945 
3	473 943 944 
3	295 942 943 
3	333 941 942 
3	192 940 941 
3	181 939 940 
3	421 938 939 
3	433 937 938 
3	356 936 937 
3	232 935 936 
3	18 934 935 
3	66 933 934 
3	142 932 933 
3	65 931 932 
3	360 930 931 
3	177 929 930 
3	112 928 929 
3	170 927 928 
3	322 926 927 
3	156 925 926 
3	307 924 925 
3	52 923 924 
3	371 922 923 
3	44 921 922 
3	167 920 921 
3	386 919 920 
3	123 918 919 
3	162 917 918 
3	10 916 917 
3	211 915 916 
3	182 914 915 
3	331 913 914 
3	83 912 913 
3	41 911 912 
3	414 910 911 
3	87 909 910 
3	57 908 909 
3	431 907 908 
3	389 906 907 
3	49 905 906 
3	227 904 905 
3	381 903 904 
3	147 902 903 
3	26 901 902 
3	240 900 901 
3	249 899 900 
3	412 898 899 
3	364 897 898 
3	7 896 897 
3	283 895 896 
3	62 894 895 
3	468 893 894 
3	419 892 893 
3	133 891 892 
3	428 890 891 
3	456 889 890 
3	375 888 889 
3	458 887 888 
3	186 886 887 
3	2 885 886 
3	56 884 885 
3	365 883 884 
3	243 882 883 
3	256 881 882 
3	385 880 881 
3	234 879 880 
3	84 878 879 
3	213 877 878 
3	273 876 877 
3	179 875 876 
3	318 874 875 
3	343 873 874 
3	358 872 873 
3	152 871 872 
3	74 870 871 
3	188 869 870 
3	180 868 869 
3	92 867 868 
3	117 866 867 
3	344 865 866 
3	345 864 865 
3	76 863 864 
3	105 862 863 
3	184 861 862 
3	148 860 861 
3	172 859 860 
3	463 858 859 
3	138 857 858 
3	359 856 857 
3	253 855 856 
3	14 854 855 
3	215 853 854 
3	209 852 853 
3	282 851 852 
3	399 850 851 
3	372 849 850 
3	4 848 849 
3	203 847 848 
3	313 846 847 
3	22 845 846 
3	68 844 845 
3	48 843 844 
3	465 842 843 
3	270 841 842 
3	210 840 841 
3	55 839 840 
3	126 838 839 
3	161 837 838 
3	136 836 837 
3	368 835 836 
3	165 834 835 
3	90 833 834 
3	178 832 833 
3	321 831 832 
3	228 830 831 
3	363 829 830 
3	190 828 829 
3	20 827 828 
3	205 826 827 
3	347 825 826 
3	460 824 825 
3	160 823 824 
3	436 822 823 
3	220 821 822 
3	450 820 821 
3	267 819 820 
3	119 818 819 
3	430 817 818 
3	33 816 817 
3	173 815 816 
3	5 814 815 
3	439 813 814 
3	37 812 813 
3	42 811 812 
3	218 810 811 
3	449 809 810 
3	259 808 809 
3	60 807 808 
3	367 806 807 
3	159 805 806 
3	6 804 805 
3	130 803 804 
3	9 802 803 
3	299 801 802 
3	237 800 801 
3	380 799 800 
3	91 798 799 
3	302 797 798 
3	144 796 797 
3	466 795 796 
3	36 794 795 
3	309 793 794 
3	418 792 793 
3	277 791 792 
3	1 790 791 
3	285 789 790 
3	85 788 789 
3	93 787 788 
3	339 786 787 
3	324 785 786 
3	443 784 785 
3	64 783 784 
3	454 782 783 
3	294 781 782 
3	206 780 781 
3	97 779 780 
3	238 778 779 
3	116 777 778 
3	444 776 777 
1	776 
1	300 
3	201 241 775 
3	361 774 775 
3	0 773 774 
3	314 772 773 
3	276 771 772 
3	348 770 771 
3	322 769 770 
3	216 768 769 
3	204 767 768 
3	193 766 767 
3	373 765 766 
3	96 764 765 
3	470 763 764 
3	432 762 763 
3	328 761 762 
3	58 760 761 
3	248 759 760 
3	409 758 759 
3	153 757 758 
3	441 756 757 
3	327 755 756 
3	286 754 755 
3	447 753 754 
3	176 752 753 
3	141 751 752 
3	175 750 751 
3	304 749 750 
3	275 748 749 
3	310 747 748 
3	118 746 747 
3	306 745 746 
3	297 744 745 
3	404 743 744 
3	326 742 743 
3	427 741 742 
3	171 740 741 
3	34 739 740 
3	392 738 739 
3	334 737 738 
3	218 736 737 
3	426 735 736 
3	266 734 735 
3	261 733 734 
3	395 732 733 
3	189 731 732 
3	362 730 731 
3	353 729 730 
3	28 728 729 
3	23 727 728 
3	21 726 727 
3	103 725 726 
3	168 724 725 
3	408 723 724 
3	268 722 723 
3	279 721 722 
3	459 720 721 
3	225 719 720 
3	413 718 719 
3	217 717 718 
3	293 716 717 
3	71 715 716 
3	308 714 715 
3	370 713 714 
3	269 712 713 
1	712 
3	0 201 711 
3	403 710 711 
3	472 709 710 
3	351 708 709 
3	199 707 708 
3	214 706 707 
3	80 705 706 
3	287 704 705 
3	202 703 704 
3	56 702 703 
3	420 701 702 
3	318 700 701 
3	88 699 700 
3	211 698 699 
3	315 697 698 
3	397 696 697 
3	382 695 696 
3	274 694 695 
3	200 693 694 
3	300 692 693 
3	460 691 692 
3	290 690 691 
3	374 689 690 
3	455 688 689 
3	198 687 688 
3	263 686 687 
1	686 
3	350 361 685 
3	132 684 685 
3	169 683 684 
3	416 682 683 
3	216 681 682 
3	86 680 681 
3	98 679 680 
3	470 678 679 
3	174 677 678 
3	441 676 677 
3	315 675 676 
3	271 674 675 
3	208 673 674 
3	73 672 673 
3	247 671 672 
3	230 670 671 
3	54 669 670 
3	352 668 669 
3	404 667 668 
3	427 666 667 
3	392 665 666 
3	334 664 665 
3	266 663 664 
3	426 662 663 
3	411 661 662 
3	150 660 661 
3	422 659 660 
3	395 658 659 
3	185 657 658 
3	212 656 657 
3	191 655 656 
3	408 654 655 
3	168 653 654 
3	108 652 653 
3	31 651 652 
3	198 650 651 
3	264 649 650 
3	396 648 649 
3	199 647 648 
3	415 646 647 
3	337 645 646 
3	81 644 645 
3	137 643 644 
3	348 642 643 
3	202 641 642 
3	461 640 641 
3	163 639 640 
3	143 638 639 
3	373 637 638 
3	204 636 637 
3	99 635 636 
3	432 634 635 
3	248 633 634 
3	272 632 633 
3	423 631 632 
3	153 630 631 
3	155 629 630 
3	286 628 629 
3	141 627 628 
3	176 626 627 
3	27 625 626 
3	252 624 625 
3	120 623 624 
3	118 622 623 
3	445 621 622 
3	391 620 621 
3	374 619 620 
3	323 618 619 
3	46 617 618 
3	114 616 617 
3	19 615 616 
3	326 614 615 
3	111 613 614 
3	262 612 613 
3	134 611 612 
3	171 610 611 
3	335 609 610 
3	43 608 609 
3	187 607 608 
3	224 606 607 
3	378 605 606 
3	425 604 605 
3	353 603 604 
3	166 602 603 
3	23 601 602 
3	296 600 601 
3	129 599 600 
3	113 598 599 
3	291 597 598 
3	225 596 597 
3	217 595 596 
3	435 594 595 
3	195 593 594 
3	370 592 593 
3	319 591 592 
3	241 590 591 
3	246 589 590 
3	201 588 589 
3	109 587 588 
3	0 586 587 
3	314 585 586 
3	433 584 585 
3	122 583 584 
3	80 582 583 
3	322 581 582 
3	429 580 581 
3	96 579 580 
3	366 578 579 
3	448 577 578 
3	58 576 577 
3	409 575 576 
3	447 574 575 
3	289 573 574 
3	304 572 573 
3	175 571 572 
3	275 570 571 
3	349 569 570 
3	236 568 569 
3	412 567 568 
3	346 566 567 
3	419 565 566 
3	34 564 565 
3	133 563 564 
3	219 562 563 
3	338 561 562 
3	458 560 561 
3	305 559 560 
3	67 558 559 
3	243 557 558 
3	385 556 557 
3	189 555 556 
3	273 554 555 
3	343 553 554 
3	316 552 553 
3	268 551 552 
3	265 550 551 
3	279 549 550 
3	239 548 549 
3	151 547 548 
3	459 546 547 
3	340 545 546 
3	413 544 545 
3	71 543 544 
3	359 542 543 
3	215 541 542 
3	393 540 541 
3	401 539 540 
3	245 538 539 
3	276 537 538 
3	472 536 537 
3	357 535 536 
3	8 534 535 
3	48 533 534 
3	63 532 533 
3	55 531 532 
3	193 530 531 
3	328 529 530 
3	424 528 529 
3	327 527 528 
3	35 526 527 
3	310 525 526 
3	460 524 525 
3	376 523 524 
3	306 522 523 
3	297 521 522 
3	267 520 521 
3	218 519 520 
3	467 518 519 
3	261 517 518 
3	159 516 517 
3	106 515 516 
3	100 514 515 
3	89 513 514 
3	362 512 513 
3	30 511 512 
3	28 510 511 
3	21 509 510 
3	103 508 509 
3	51 507 508 
3	293 506 507 
3	308 505 506 
3	116 504 505 
3	269 503 504 
1	503 
3	127 280 502 
3	257 501 502 
3	159 500 501 
3	6 499 500 
3	278 498 499 
3	193 497 498 
3	288 496 497 
3	99 495 496 
3	165 494 495 
3	325 493 494 
3	343 492 493 
3	281 491 492 
3	447 490 491 
3	141 489 490 
3	93 488 489 
3	459 487 488 
3	160 486 487 
3	121 485 486 
3	388 484 485 
3	394 483 484 
3	225 482 483 
3	16 481 482 
3	135 480 481 
3	330 479 480 
3	149 478 479 
3	71 477 478 
3	341 476 477 
3	231 475 476 
3	111 474 475 
1	474 
1	101 
1	214 
1	132 
1	53 
1	223 
1	110 
1	416 
1	86 
1	336 
1	221 
1	453 
1	174 
1	154 
1	158 
1	200 
1	128 
1	73 
1	230 
1	352 
1	437 
1	427 
1	355 
1	266 
1	411 
1	442 
1	77 
1	462 
1	354 
1	292 
1	254 
1	47 
1	398 
1	226 
1	157 
1	255 
1	233 
1	168 
1	382 
1	284 
1	131 
1	31 
1	194 
1	455 
1	124 
1	198 
1	464 
1	264 
1	471 
1	24 
1	199 
1	332 
1	337 
1	469 
1	137 
1	348 
1	204 
1	434 
1	384 
1	432 
1	248 
1	423 
1	272 
1	197 
1	406 
1	286 
1	196 
1	141 
1	27 
1	377 
1	29 
1	118 
1	290 
1	32 
1	303 
1	402 
1	140 
1	46 
1	114 
1	326 
1	207 
1	171 
1	187 
1	446 
1	312 
1	72 
1	258 
1	438 
1	94 
1	278 
1	378 
1	224 
1	407 
1	145 
1	353 
1	317 
1	12 
1	129 
1	400 
1	11 
1	251 
1	291 
1	70 
1	183 
1	473 
1	192 
1	241 
1	421 
1	109 
1	314 
1	356 
1	433 
1	18 
1	122 
1	66 
1	142 
1	360 
1	65 
1	80 
1	170 
1	96 
1	307 
1	371 
1	44 
1	58 
1	88 
1	409 
1	123 
1	386 
1	162 
1	447 
1	289 
1	182 
1	331 
1	275 
1	41 
1	87 
1	57 
1	389 
1	381 
1	26 
1	330 
1	240 
1	249 
1	236 
1	364 
1	412 
1	62 
1	468 
1	428 
1	375 
1	287 
1	338 
1	219 
1	458 
1	305 
1	365 
1	67 
1	288 
1	84 
1	189 
1	318 
1	343 
1	316 
1	74 
1	188 
1	92 
1	345 
1	279 
1	76 
1	105 
1	148 
1	138 
1	359 
1	253 
1	215 
1	209 
1	231 
1	401 
1	393 
1	245 
1	399 
1	276 
1	357 
1	313 
1	22 
1	68 
1	8 
1	48 
1	63 
1	465 
1	270 
1	210 
1	55 
1	161 
1	193 
1	368 
1	165 
1	424 
1	178 
1	321 
1	363 
1	20 
1	35 
1	347 
1	310 
1	460 
1	160 
1	388 
1	220 
1	306 
1	297 
1	450 
1	430 
1	33 
1	173 
1	5 
1	439 
1	403 
1	42 
1	218 
1	60 
1	367 
1	159 
1	6 
1	130 
1	100 
1	9 
1	237 
1	91 
1	89 
1	302 
1	36 
1	362 
1	309 
1	30 
1	418 
1	21 
1	103 
1	285 
1	339 
1	51 
1	238 
1	116 
1	263 
1	269 
1	350 
1	361 
1	257 
1	379 
1	38 
1	169 
1	329 
1	216 
1	98 
1	470 
1	410 
1	301 
1	13 
1	441 
1	315 
1	271 
1	397 
1	164 
1	208 
1	247 
1	79 
1	451 
1	242 
1	54 
1	404 
1	452 
1	107 
1	383 
1	392 
1	334 
1	351 
1	426 
1	260 
1	150 
1	235 
1	422 
1	395 
1	185 
1	17 
1	387 
1	244 
1	212 
1	15 
1	25 
1	59 
1	281 
1	39 
1	191 
1	320 
1	408 
1	45 
1	274 
1	139 
1	369 
1	108 
1	95 
1	222 
1	78 
1	3 
1	396 
1	415 
1	81 
1	390 
1	202 
1	461 
1	163 
1	250 
1	143 
1	373 
1	440 
1	342 
1	99 
1	417 
1	104 
1	155 
1	153 
1	40 
1	115 
1	176 
1	300 
1	252 
1	120 
1	445 
1	75 
1	391 
1	394 
1	374 
1	405 
1	323 
1	149 
1	61 
1	19 
1	341 
1	146 
1	111 
1	69 
1	262 
1	134 
1	127 
1	335 
1	43 
1	229 
1	102 
1	311 
1	125 
1	82 
1	425 
1	420 
1	166 
1	298 
1	23 
1	296 
1	113 
1	50 
1	457 
1	225 
1	217 
1	435 
1	295 
1	195 
1	370 
1	319 
1	333 
1	181 
1	201 
1	246 
1	0 
1	232 
1	177 
1	112 
1	429 
1	322 
1	156 
1	366 
1	448 
1	52 
1	167 
1	10 
1	211 
1	175 
1	304 
1	83 
1	349 
1	414 
1	16 
1	227 
1	49 
1	431 
1	147 
1	7 
1	346 
1	283 
1	419 
1	34 
1	133 
1	456 
1	186 
1	2 
1	56 
1	256 
1	243 
1	385 
1	234 
1	325 
1	213 
1	273 
1	179 
1	358 
1	152 
1	180 
1	117 
1	268 
1	265 
1	344 
1	151 
1	239 
1	459 
1	340 
1	135 
1	413 
1	184 
1	172 
1	71 
1	463 
1	14 
1	282 
1	372 
1	4 
1	472 
1	203 
1	126 
1	136 
1	328 
1	90 
1	327 
1	228 
1	190 
1	205 
1	376 
1	436 
1	267 
1	119 
1	280 
1	37 
1	467 
1	449 
1	259 
1	261 
1	106 
1	299 
1	380 
1	144 
1	466 
1	277 
1	28 
1	1 
1	85 
1	93 
1	324 
1	121 
1	443 
1	64 
1	454 
1	294 
1	293 
1	206 
1	97 
1	308 
1	444 
0	

8
 1 0 0.1 0.9 0.5 0.5 0.05 0.95
2
 0.03 1
8
 1 0 0.9 0.1 0.9 0.1 0.81 0.19
8
 1 0 0 1 0.3 0 0.7 1
8
 1 0 0 1 0.5 0 0.5 1
8
 1 0 0 1 0.1 0 0.9 1
8
 1 0 0 1 0.9 0 0.1 1
8
 1 0 0 1 0.2 0 0.8 1
8
 1 0 0 1 0.9 0 0.1 1
8
 1 0 0 1 0.9 0 0.1 1
8
 1 0 0 1 0.7 0 0.3 1
8
 1 0 0 1 0.5 0 0.5 1
8
 1 0 0 1 0.5 0 0.5 1
8
 1 0 0 1 0.9 0 0.1 1
8
 1 0 0 1 0.9 0 0.1 1
8
 1 0 0 1 0.5 0 0.5 1
8
 1 0 0 1 0.9 0 0.1 1
8
 1 0 0 1 0.72 0 0.28 1
8
 1 0 0 1 0.9 0 0.1 1
8
 1 0 0 1 0.9 0 0.1 1
8
 1 0 0 1 0.5 0 0.5 1
8
 1 0 0 1 0.5 0 0.5 1
8
 1 0 0 1 0.8 0 0.2 1
8
 1 0 0 1 0.9 0 0.1 1
8
 1 0 0 1 0.3 0 0.7 1
8
 1 0 0 1 0.8 0 0.2 1
8
 1 0 0 1 0.2 0 0.8 1
8
 1 0 0 1 0.75 0 0.25 1
8
 1 0 0 1 0.9 0 0.1 1
8
 1 0 0 1 0.7 0 0.3 1
8
 1 0 0 1 0.3 0 0.7 1
8
 1 0 0 1 0.8 0 0.2 1
8
 1 0 0 1 0.9 0 0.1 1
8
 1 0 0 1 0.8 0 0.2 1
8
 1 0 0 1 0.1 0 0.9 1
8
 1 0 0 1 0.9 0 0.1 1
8
 1 0 0 1 0.1 0 0.9 1
8
 1 0 0 1 0.9 0 0.1 1
8
 1 0 0 1 0.9 0 0.1 1
8
 1 0 0 1 0.5 0 0.5 1
8
 1 0 0 1 0.9 0 0.1 1
8
 1 0 0 1 0.9 0 0.1 1
8
 1 0 0 1 0.2 0 0.8 1
8
 1 0 0 1 0.7 0 0.3 1
8
 1 0 0 1 0.3 0 0.7 1
8
 1 0 0 1 0.4 0 0.6 1
8
 1 0 0 1 0.9 0 0.1 1
8
 1 0 0 1 0.9 0 0.1 1
8
 1 0 0 1 0.5 0 0.5 1
8
 1 0 0 1 0.5 0 0.5 1
8
 1 0 0 1 0.85 0 0.15 1
8
 1 0 0 1 0.9 0 0.1 1
8
 1 0 0 1 0.09 0 0.91 1
8
 1 0 0 1 0.5 0 0.5 1
8
 1 0 0 1 0.5 0 0.5 1
8
 1 0 0 1 0.9 0 0.1 1
8
 1 0 0 1 0.5 0 0.5 1
8
 1 0 0 1 0.9 0 0.1 1
8
 1 0 0 1 0.1 0 0.9 1
8
 1 0 0 1 0.9 0 0.1 1
8
 1 0 0 1 0.9 0 0.1 1
8
 1 0 0 1 0.5 0 0.5 1
8
 1 0 0 1 0.5 0 0.5 1
8
 1 0 0 1 0.5 0 0.5 1
8
 1 0 0 1 0.9 0 0.1 1
8
 1 0 0 1 0.5 0 0.5 1
8
 1 0 0 1 0.5 0 0.5 1
8
 1 0 0 1 0.9 0 0.1 1
8
 1 0 0 1 0.5 0 0.5 1
8
 1 0 0 1 0.9 0 0.1 1
8
 1 0 0 1 0.3 0 0.7 1
8
 1 0 0 1 0.9 0 0.1 1
8
 1 0 0 1 0.5 0 0.5 1
8
 1 0 0 1 0.9 0 0.1 1
8
 1 0 0 1 0.1 0 0.9 1
8
 1 0 0 1 0.5 0 0.5 1
8
 1 0 0 1 0.9 0 0.1 1
8
 1 0 0 1 0.2 0 0.8 1
8
 1 0 0 1 0.9 0 0.1 1
8
 1 0 0 1 0.9 0 0.1 1
8
 1 0 0 1 0.6 0 0.4 1
8
 1 0 0 1 0.9 0 0.1 1
8
 1 0 0 1 0.9 0 0.1 1
8
 1 0 0 1 0 0 1 1
8
 1 0 0 1 0.05 0 0.95 1
8
 1 0 0 1 0.5 0 0.5 1
8
 1 0 0 1 0.9 0 0.1 1
8
 1 0 0 1 0.1 0 0.9 1
8
 1 0 0 1 0.9 0 0.1 1
8
 1 0 0 1 0.9 0 0.1 1
8
 1 0 0 1 0.2 0 0.8 1
8
 1 0 0 1 0.9 0 0.1 1
8
 1 0 0 1 0.9 0 0.1 1
8
 1 0 0 1 0.5 0 0.5 1
8
 1 0 0 1 0.9 0 0.1 1
8
 1 0 0 1 0.1 0 0.9 1
8
 1 0 0 1 0.1 0 0.9 1
8
 1 0 0 1 0.9 0 0.1 1
8
 1 0 0 1 0.5 0 0.5 1
8
 1 0 0 1 0.5 0 0.5 1
8
 1 0 0 1 0.9 0 0.1 1
8
 1 0 0 1 0.4 0 0.6 1
8
 1 0 0 1 0.7 0 0.3 1
8
 1 0 0 1 0.5 0 0.5 1
8
 1 0 0 1 0.5 0 0.5 1
8
 1 0 0 1 0.9 0 0.1 1
8
 1 0 0 1 0.1 0 0.9 1
8
 1 0 0 1 0.5 0 0.5 1
8
 1 0 0 1 0.1 0 0.9 1
8
 1 0 0 1 0.9 0 0.1 1
8
 1 0 0 1 0.9 0 0.1 1
8
 1 0 0 1 0.5 0 0.5 1
8
 1 0 0 1 0.1 0 0.9 1
8
 1 0 0 1 0.9 0 0.1 1
8
 1 0 0 1 0.9 0 0.1 1
8
 1 0 0 1 0.9 0 0.1 1
8
 1 0 0 1 0.5 0 0.5 1
8
 1 0 0 1 0.5 0 0.5 1
8
 1 0 0 1 0.89 0 0.11 1
8
 1 0 0 1 0.9 0 0.1 1
8
 1 0 0 1 0.5 0 0.5 1
8
 1 0 0 1 0.47 0 0.53 1
8
 1 0 0 1 0.7 0 0.3 1
8
 1 0 0 1 0.5 0 0.5 1
8
 1 0 0 1 0.1 0 0.9 1
8
 1 0 0 1 0.7 0 0.3 1
8
 1 0 0 1 0.9 0 0.1 1
8
 1 0 0 1 0.1 0 0.9 1
8
 1 0 0 1 0.9 0 0.1 1
8
 1 0 0 1 0.9 0 0.1 1
8
 1 0 0 1 0.89 0 0.11 1
8
 1 0 0 1 0.5 0 0.5 1
8
 1 0 0 1 0.8 0 0.2 1
8
 1 0 0 1 0.9 0 0.1 1
8
 1 0 0 1 0.9 0 0.1 1
8
 1 0 0 1 0.2 0 0.8 1
8
 1 0 0 1 0.9 0 0.1 1
8
 1 0 0 1 0.19 0 0.81 1
8
 1 0 0 1 0.7 0 0.3 1
8
 1 0 0 1 0.89 0 0.11 1
8
 1 0 0 1 0.9 0 0.1 1
8
 1 0 0 1 0.8 0 0.2 1
8
 1 0 0 1 0.9 0 0.1 1
8
 1 0 0 1 0.9 0 0.1 1
8
 1 0 0 1 0.9 0 0.1 1
8
 1 0 0 1 0.3 0 0.7 1
8
 1 0 0 1 0.5 0 0.5 1
8
 1 0 0 1 0.9 0 0.1 1
8
 1 0 0 1 0.3 0 0.7 1
8
 1 0 0 1 0.5 0 0.5 1
8
 1 0 0 1 0.05 0 0.95 1
8
 1 0 0 1 0.9 0 0.1 1
8
 1 0 0 1 0.1 0 0.9 1
8
 1 0 0 1 0.2 0 0.8 1
8
 1 0 0 1 0.8 0 0.2 1
8
 1 0 0 1 0.9 0 0.1 1
8
 1 0 0 1 0.1 0 0.9 1
8
 1 0 0 1 0.01 0 0.99 1
8
 1 0 0 1 0.8 0 0.2 1
8
 1 0 0 1 0.5 0 0.5 1
8
 1 0 0 1 0.3 0 0.7 1
8
 1 0 0 1 0.9 0 0.1 1
8
 1 0 0 1 0.3 0 0.7 1
8
 1 0 0 1 0.5 0 0.5 1
8
 1 0 0 1 0.9 0 0.1 1
8
 1 0 0 1 0.4 0 0.6 1
8
 1 0 0 1 0.9 0 0.1 1
8
 1 0 0 1 0.09 0 0.91 1
8
 1 0 0 1 0.95 0 0.05 1
8
 1 0 0 1 0.3 0 0.7 1
8
 1 0 0 1 0.35 0 0.65 1
8
 1 0 0 1 0.5 0 0.5 1
8
 1 0 0 1 0.9 0 0.1 1
8
 1 0 0 1 0.5 0 0.5 1
8
 1 0 0 1 0.4 0 0.6 1
8
 1 0 0 1 0.8 0 0.2 1
8
 1 0 0 1 0.3 0 0.7 1
8
 1 0 0 1 0.5 0 0.5 1
8
 1 0 0 1 0.5 0 0.5 1
8
 1 0 0 1 0.9 0 0.1 1
8
 1 0 0 1 0.6 0 0.4 1
8
 1 0 0 1 0.9 0 0.1 1
8
 1 0 0 1 0.9 0 0.1 1
8
 1 0 0 1 0.9 0 0.1 1
8
 1 0 0 1 0.9 0 0.1 1
8
 1 0 0 1 0.9 0 0.1 1
8
 1 0 0 1 0.9 0 0.1 1
8
 1 0 0 1 0.01 0 0.99 1
8
 1 0 0 1 0.9 0 0.1 1
8
 1 0 0 1 0.2 0 0.8 1
8
 1 0 0 1 0.7 0 0.3 1
8
 1 0 0 1 0.7 0 0.3 1
8
 1 0 0 1 0.9 0 0.1 1
8
 1 0 0 1 0.5 0 0.5 1
8
 1 0 0 1 0.9 0 0.1 1
8
 1 0 0 1 0.98 0 0.02 1
8
 1 0 0 1 0.5 0 0.5 1
8
 1 0 0 1 0.5 0 0.5 1
8
 1 0 0 1 0.7 0 0.3 1
8
 1 0 0 1 0.5 0 0.5 1
8
 1 0 0 1 0.8 0 0.2 1
8
 1 0 0 1 0.9 0 0.1 1
8
 1 0 0 1 0.9 0 0.1 1
8
 1 0 0 1 0.4 0 0.6 1
8
 1 0 0 1 0.9 0 0.1 1
8
 1 0 0 1 0.5 0 0.5 1
8
 1 0 0 1 0.2 0 0.8 1
8
 1 0 0 1 0.9 0 0.1 1
8
 1 0 0 1 0.9 0 0.1 1
8
 1 0 0 1 0.5 0 0.5 1
8
 1 0 0 1 0.9 0 0.1 1
8
 1 0 0 1 0.9 0 0.1 1
8
 1 0 0 1 0.9 0 0.1 1
8
 1 0 0 1 0.67 0 0.33 1
8
 1 0 0 1 0.5 0 0.5 1
8
 1 0 0 1 0.89 0 0.11 1
8
 1 0 0 1 0.3 0 0.7 1
8
 1 0 0 1 0.3 0 0.7 1
8
 1 0 0 1 0.9 0 0.1 1
8
 1 0 0 1 0.9 0 0.1 1
8
 1 0 0 1 0.1 0 0.9 1
8
 1 0 0 1 0.9 0 0.1 1
8
 1 0 0 1 0.34 0 0.66 1
8
 1 0 0 1 0.9 0 0.1 1
8
 1 0 0 1 0.9 0 0.1 1
8
 1 0 0 1 0.9 0 0.1 1
8
 1 0 0 1 0.5 0 0.5 1
8
 1 0 0 1 0.9 0 0.1 1
8
 1 0 0 1 0.9 0 0.1 1
8
 1 0 0 1 0.5 0 0.5 1
8
 1 0 0 1 0.5 0 0.5 1
8
 1 0 0 1 0.9 0 0.1 1
8
 1 0 0 1 0.9 0 0.1 1
8
 1 0 0 1 0.9 0 0.1 1
8
 1 0 0 1 0.7 0 0.3 1
8
 1 0 0 1 0.5 0 0.5 1
8
 1 0 0 1 0.9 0 0.1 1
8
 1 0 0 1 0.72 0 0.28 1
8
 1 0 0 1 0.72 0 0.28 1
8
 1 0 0 1 0.9 0 0.1 1
8
 1 0 0 1 0.9 0 0.1 1
8
 1 0 0 1 0.9 0 0.1 1
8
 1 0 0 1 0.25 0 0.75 1
8
 1 0 0 1 0.5 0 0.5 1
8
 1 0 0 1 0.7 0 0.3 1
8
 1 0 0 1 0.9 0 0.1 1
8
 1 0 0 1 0.9 0 0.1 1
8
 1 0 0 1 0.4 0 0.6 1
8
 1 0 0 1 0.9 0 0.1 1
8
 1 0 0 1 0.5 0 0.5 1
8
 1 0 0 1 0.9 0 0.1 1
8
 1 0 0 1 0.2 0 0.8 1
8
 1 0 0 1 0.8 0 0.2 1
8
 1 0 0 1 0.8 0 0.2 1
8
 1 0 0 1 0.9 0 0.1 1
8
 1 0 0 1 0.5 0 0.5 1
8
 1 0 0 1 0.9 0 0.1 1
8
 1 0 0 1 0.5 0 0.5 1
8
 1 0 0 1 0.9 0 0.1 1
8
 1 0 0 1 0.9 0 0.1 1
8
 1 0 0 1 0.9 0 0.1 1
8
 1 0 0 1 0.9 0 0.1 1
8
 1 0 0 1 0.9 0 0.1 1
8
 1 0 0 1 0.9 0 0.1 1
8
 1 0 0 1 0.1 0 0.9 1
8
 1 0 0 1 0.5 0 0.5 1
8
 1 0 0 1 0.9 0 0.1 1
8
 1 0 0 1 0.9 0 0.1 1
8
 1 0 0 1 0.5 0 0.5 1
8
 1 0 0 1 0.7 0 0.3 1
8
 1 0 0 1 0.9 0 0.1 1
8
 1 0 0 1 0.9 0 0.1 1
8
 1 0 0 1 0.7 0 0.3 1
8
 1 0 0 1 0.9 0 0.1 1
8
 1 0 0 1 0.3 0 0.7 1
8
 1 0 0 1 0.3 0 0.7 1
8
 1 0 0 1 0.3 0 0.7 1
8
 1 0 0 1 0.9 0 0.1 1
8
 1 0 0 1 0.9 0 0.1 1
8
 1 0 0 1 0.3 0 0.7 1
8
 1 0 0 1 0.5 0 0.5 1
8
 1 0 0 1 0.1 0 0.9 1
8
 1 0 0 1 0.1 0 0.9 1
8
 1 0 0 1 0.3 0 0.7 1
8
 1 0 0 1 0.9 0 0.1 1
8
 1 0 0 1 0.2 0 0.8 1
8
 1 0 0 1 0.9 0 0.1 1
8
 1 0 0 1 0.9 0 0.1 1
8
 1 0 0 1 0.3 0 0.7 1
8
 1 0 0 1 0.5 0 0.5 1
8
 1 0 0 1 0.9 0 0.1 1
8
 1 0 0 1 0.8 0 0.2 1
8
 1 0 0 1 0.9 0 0.1 1
8
 1 0 0 1 0.6 0 0.4 1
2
 0.03 1
2
 0 0.8
8
 1 0 0 1 0 1 0 1
8
 1 0 0 1 0 0 1 1
8
 1 0 0 1 0 0 1 1
8
 1 0 0 1 0 0 1 1
8
 1 0 0 1 0 0 1 1
8
 1 0 0 1 0 0 1 1
8
 1 0 0 1 0 0 1 1
8
 1 0 0 1 0 0 1 1
8
 1 0 0 1 0 0 1 1
8
 1 0 0 1 0 0 1 1
8
 1 0 0 1 0 0 1 1
8
 1 0 0 1 0 0 1 1
8
 1 0 0 1 0 0 1 1
8
 1 0 0 1 0 0 1 1
8
 1 0 0 1 0 0 1 1
8
 1 0 0 1 0 0 1 1
8
 1 0 0 1 0 0 1 1
8
 1 0 0 1 0 0 1 1
8
 1 0 0 1 0 0 1 1
8
 1 0 0 1 0 0 1 1
8
 1 0 0 1 0 0 1 1
8
 1 0 0 1 0 0 1 1
8
 1 0 0 1 0 0 1 1
8
 1 0 0 1 0 0 1 1
8
 1 0 0 1 0 0 1 1
8
 1 0 0 1 0 0 1 1
8
 1 0 0 1 0 0 1 1
8
 1 0 0 1 0 0 1 1
8
 1 0 0 1 0 0 1 1
8
 1 0 0 1 0 0 1 1
8
 1 0 0 1 0 0 1 1
8
 1 0 0 1 0 0 1 1
8
 1 0 0 1 0 0 1 1
8
 1 0 0 1 0 0 1 1
8
 1 0 0 1 0 0 1 1
8
 1 0 0 1 0 0 1 1
8
 1 0 0 1 0 0 1 1
8
 1 0 0 1 0 0 1 1
8
 1 0 0 1 0 0 1 1
8
 1 0 0 1 0 0 1 1
8
 1 0 0 1 0 0 1 1
8
 1 0 0 1 0 0 1 1
8
 1 0 0 1 0 0 1 1
8
 1 0 0 1 0 0 1 1
8
 1 0 0 1 0 0 1 1
8
 1 0 0 1 0 0 1 1
8
 1 0 0 1 0 0 1 1
8
 1 0 0 1 0 0 1 1
8
 1 0 0 1 0 0 1 1
8
 1 0 0 1 0 0 1 1
8
 1 0 0 1 0 0 1 1
8
 1 0 0 1 0 0 1 1
8
 1 0 0 1 0 0 1 1
8
 1 0 0 1 0 0 1 1
8
 1 0 0 1 0 0 1 1
8
 1 0 0 1 0 0 1 1
8
 1 0 0 1 0 0 1 1
8
 1 0 0 1 0 0 1 1
8
 1 0 0 1 0 0 1 1
8
 1 0 0 1 0 0 1 1
8
 1 0 0 1 0 0 1 1
8
 1 0 0 1 0 0 1 1
8
 1 0 0 1 0 0 1 1
8
 1 0 0 1 0 0 1 1
2
 0.03 1
8
 1 0 0.4 0.6 0.6 0.4 0.24 0.76
8
 1 0 0 1 0.02 0 0.98 1
8
 1 0 0 1 0.6 0 0.4 1
8
 1 0 0 1 0 0 1 1
8
 1 0 0 1 0.4 0 0.6 1
8
 1 0 0 1 0.5 0 0.5 1
8
 1 0 0 1 0.5 0 0.5 1
8
 1 0 0 1 0.89 0 0.11 1
8
 1 0 0 1 0.4 0 0.6 1
8
 1 0 0 1 0.4 0 0.6 1
8
 1 0 0 1 0.02 0 0.98 1
8
 1 0 0 1 0.4 0 0.6 1
8
 1 0 0 1 0.4 0 0.6 1
8
 1 0 0 1 0.4 0 0.6 1
8
 1 0 0 1 0.89 0 0.11 1
8
 1 0 0 1 0.1 0 0.9 1
8
 1 0 0 1 0.05 0 0.95 1
8
 1 0 0 1 0.02 0 0.98 1
8
 1 0 0 1 0.4 0 0.6 1
8
 1 0 0 1 0.01 0 0.99 1
8
 1 0 0 1 0.4 0 0.6 1
8
 1 0 0 1 0 0 1 1
8
 1 0 0 1 0.4 0 0.6 1
8
 1 0 0 1 0.05 0 0.95 1
8
 1 0 0 1 0.4 0 0.6 1
8
 1 0 0 1 0.1 0 0.9 1
2
 0.03 1
8
 1 0 0 1 0.9 0.1 0 1
8
 1 0 0 1 0.2 0 0.8 1
8
 1 0 0 1 0.4 0 0.6 1
8
 1 0 0 1 0.5 0 0.5 1
8
 1 0 0 1 0 0 1 1
8
 1 0 0 1 0.9 0 0.1 1
8
 1 0 0 1 0.5 0 0.5 1
8
 1 0 0 1 0.89 0 0.11 1
8
 1 0 0 1 0.5 0 0.5 1
8
 1 0 0 1 0 0 1 1
8
 1 0 0 1 0.89 0 0.11 1
8
 1 0 0 1 0.5 0 0.5 1
8
 1 0 0 1 0.2 0 0.8 1
8
 1 0 0 1 0.4 0 0.6 1
8
 1 0 0 1 0.1 0 0.9 1
8
 1 0 0 1 0.5 0 0.5 1
8
 1 0 0 1 0.5 0 0.5 1
8
 1 0 0 1 0.1 0 0.9 1
8
 1 0 0 1 0 0 1 1
8
 1 0 0 1 0.5 0 0.5 1
8
 1 0 0 1 0.01 0 0.99 1
8
 1 0 0 1 0 0 1 1
8
 1 0 0 1 0 0 1 1
8
 1 0 0 1 0 0 1 1
8
 1 0 0 1 0.5 0 0.5 1
8
 1 0 0 1 0.9 0 0.1 1
8
 1 0 0 1 0.5 0 0.5 1
8
 1 0 0 1 0 0 1 1
8
 1 0 0 1 0.5 0 0.5 1
8
 1 0 0 1 0.9 0 0.1 1
8
 1 0 0 1 0.5 0 0.5 1
8
 1 0 0 1 0.1 0 0.9 1
8
 1 0 0 1 0 0 1 1
8
 1 0 0 1 0.1 0 0.9 1
8
 1 0 0 1 0.5 0 0.5 1
8
 1 0 0 1 0.9 0 0.1 1
8
 1 0 0 1 0.5 0 0.5 1
8
 1 0 0 1 0.5 0 0.5 1
8
 1 0 0 1 0.9 0 0.1 1
8
 1 0 0 1 0.09 0 0.91 1
8
 1 0 0 1 0.5 0 0.5 1
8
 1 0 0 1 0.1 0 0.9 1
8
 1 0 0 1 0.5 0 0.5 1
8
 1 0 0 1 0.5 0 0.5 1
8
 1 0 0 1 0.9 0 0.1 1
8
 1 0 0 1 0.09 0 0.91 1
8
 1 0 0 1 0.5 0 0.5 1
8
 1 0 0 1 0.5 0 0.5 1
8
 1 0 0 1 0 0 1 1
8
 1 0 0 1 0 0 1 1
8
 1 0 0 1 0.5 0 0.5 1
8
 1 0 0 1 0 0 1 1
8
 1 0 0 1 0 0 1 1
8
 1 0 0 1 0.5 0 0.5 1
8
 1 0 0 1 0.1 0 0.9 1
8
 1 0 0 1 0.5 0 0.5 1
8
 1 0 0 1 0.57 0 0.43 1
8
 1 0 0 1 0 0 1 1
8
 1 0 0 1 0 0 1 1
8
 1 0 0 1 0 0 1 1
8
 1 0 0 1 0.5 0 0.5 1
8
 1 0 0 1 0.5 0 0.5 1
8
 1 0 0 1 0.9 0 0.1 1
8
 1 0 0 1 0 0 1 1
8
 1 0 0 1 0.5 0 0.5 1
8
 1 0 0 1 0.1 0 0.9 1
8
 1 0 0 1 0.5 0 0.5 1
8
 1 0 0 1 0.1 0 0.9 1
8
 1 0 0 1 0.5 0 0.5 1
8
 1 0 0 1 0.4 0 0.6 1
8
 1 0 0 1 0.5 0 0.5 1
8
 1 0 0 1 0 0 1 1
8
 1 0 0 1 0.5 0 0.5 1
8
 1 0 0 1 0.9 0 0.1 1
8
 1 0 0 1 0.5 0 0.5 1
8
 1 0 0 1 0 0 1 1
8
 1 0 0 1 0.89 0 0.11 1
8
 1 0 0 1 0.5 0 0.5 1
8
 1 0 0 1 0.5 0 0.5 1
8
 1 0 0 1 0.5 0 0.5 1
8
 1 0 0 1 0.4 0 0.6 1
8
 1 0 0 1 0.5 0 0.5 1
8
 1 0 0 1 0 0 1 1
8
 1 0 0 1 0.1 0 0.9 1
8
 1 0 0 1 0.6 0 0.4 1
8
 1 0 0 1 0.5 0 0.5 1
8
 1 0 0 1 0.1 0 0.9 1
8
 1 0 0 1 0.4 0 0.6 1
8
 1 0 0 1 0.5 0 0.5 1
8
 1 0 0 1 0 0 1 1
8
 1 0 0 1 0 0 1 1
8
 1 0 0 1 0.1 0 0.9 1
8
 1 0 0 1 0.59 0 0.41 1
8
 1 0 0 1 0 0 1 1
8
 1 0 0 1 0.4 0 0.6 1
8
 1 0 0 1 0 0 1 1
8
 1 0 0 1 0.5 0 0.5 1
8
 1 0 0 1 0.9 0 0.1 1
8
 1 0 0 1 0.5 0 0.5 1
8
 1 0 0 1 0 0 1 1
8
 1 0 0 1 0 0 1 1
8
 1 0 0 1 0.9 0 0.1 1
8
 1 0 0 1 0.4 0 0.6 1
8
 1 0 0 1 0.5 0 0.5 1
8
 1 0 0 1 0.1 0 0.9 1
8
 1 0 0 1 0.4 0 0.6 1
8
 1 0 0 1 0 0 1 1
8
 1 0 0 1 0.5 0 0.5 1
8
 1 0 0 1 0.09 0 0.91 1
8
 1 0 0 1 0 0 1 1
8
 1 0 0 1 0 0 1 1
8
 1 0 0 1 0 0 1 1
8
 1 0 0 1 0.89 0 0.11 1
8
 1 0 0 1 0 0 1 1
8
 1 0 0 1 0 0 1 1
8
 1 0 0 1 0 0 1 1
8
 1 0 0 1 0.5 0 0.5 1
8
 1 0 0 1 0.5 0 0.5 1
8
 1 0 0 1 0.5 0 0.5 1
8
 1 0 0 1 0.5 0 0.5 1
8
 1 0 0 1 0.5 0 0.5 1
8
 1 0 0 1 0 0 1 1
8
 1 0 0 1 0.5 0 0.5 1
8
 1 0 0 1 0.4 0 0.6 1
8
 1 0 0 1 0.5 0 0.5 1
8
 1 0 0 1 0.7 0 0.3 1
8
 1 0 0 1 0.5 0 0.5 1
8
 1 0 0 1 0.89 0 0.11 1
8
 1 0 0 1 0.5 0 0.5 1
8
 1 0 0 1 0.9 0 0.1 1
8
 1 0 0 1 0 0 1 1
8
 1 0 0 1 0.9 0 0.1 1
8
 1 0 0 1 0.5 0 0.5 1
8
 1 0 0 1 0.5 0 0.5 1
8
 1 0 0 1 0 0 1 1
8
 1 0 0 1 0.75 0 0.25 1
8
 1 0 0 1 0 0 1 1
8
 1 0 0 1 0.09 0 0.91 1
8
 1 0 0 1 0.5 0 0.5 1
8
 1 0 0 1 0 0 1 1
8
 1 0 0 1 0.5 0 0.5 1
8
 1 0 0 1 0 0 1 1
8
 1 0 0 1 0 0 1 1
8
 1 0 0 1 0.9 0 0.1 1
8
 1 0 0 1 0.7 0 0.3 1
8
 1 0 0 1 0.4 0 0.6 1
8
 1 0 0 1 0.5 0 0.5 1
8
 1 0 0 1 0.1 0 0.9 1
8
 1 0 0 1 0 0 1 1
8
 1 0 0 1 0.6 0 0.4 1
8
 1 0 0 1 0.5 0 0.5 1
8
 1 0 0 1 0.4 0 0.6 1
8
 1 0 0 1 0.9 0 0.1 1
8
 1 0 0 1 0.5 0 0.5 1
8
 1 0 0 1 0.9 0 0.1 1
8
 1 0 0 1 0 0 1 1
8
 1 0 0 1 0 0 1 1
8
 1 0 0 1 0.4 0 0.6 1
8
 1 0 0 1 0 0 1 1
8
 1 0 0 1 0.09 0 0.91 1
8
 1 0 0 1 0 0 1 1
8
 1 0 0 1 0.9 0 0.1 1
8
 1 0 0 1 0.5 0 0.5 1
8
 1 0 0 1 0 0 1 1
8
 1 0 0 1 0 0 1 1
8
 1 0 0 1 0.9 0 0.1 1
8
 1 0 0 1 0 0 1 1
8
 1 0 0 1 0.9 0 0.1 1
8
 1 0 0 1 0 0 1 1
8
 1 0 0 1 0.05 0 0.95 1
8
 1 0 0 1 0.5 0 0.5 1
8
 1 0 0 1 0.5 0 0.5 1
8
 1 0 0 1 0.5 0 0.5 1
8
 1 0 0 1 0 0 1 1
8
 1 0 0 1 0.5 0 0.5 1
8
 1 0 0 1 0 0 1 1
8
 1 0 0 1 0.1 0 0.9 1
8
 1 0 0 1 0 0 1 1
8
 1 0 0 1 0.5 0 0.5 1
8
 1 0 0 1 0 0 1 1
8
 1 0 0 1 0 0 1 1
8
 1 0 0 1 0.9 0 0.1 1
8
 1 0 0 1 0.01 0 0.99 1
2
 0.03 1
8
 1 0 0.6 0.4 0.5 0.5 0.3 0.7
8
 1 0 0 1 0.6 0 0.4 1
8
 1 0 0 1 0.8 0 0.2 1
8
 1 0 0 1 0.5 0 0.5 1
8
 1 0 0 1 0.8 0 0.2 1
8
 1 0 0 1 0.5 0 0.5 1
8
 1 0 0 1 0.4 0 0.6 1
8
 1 0 0 1 0.5 0 0.5 1
8
 1 0 0 1 0.7 0 0.3 1
8
 1 0 0 1 0.6 0 0.4 1
8
 1 0 0 1 0.5 0 0.5 1
8
 1 0 0 1 0.7 0 0.3 1
8
 1 0 0 1 0.5 0 0.5 1
8
 1 0 0 1 0.6 0 0.4 1
8
 1 0 0 1 0.1 0 0.9 1
8
 1 0 0 1 0.7 0 0.3 1
8
 1 0 0 1 0.5 0 0.5 1
8
 1 0 0 1 0.6 0 0.4 1
8
 1 0 0 1 0.6 0 0.4 1
8
 1 0 0 1 0.5 0 0.5 1
8
 1 0 0 1 0.5 0 0.5 1
8
 1 0 0 1 0.4 0 0.6 1
8
 1 0 0 1 0 0 1 1
8
 1 0 0 1 0.4 0 0.6 1
8
 1 0 0 1 0.4 0 0.6 1
8
 1 0 0 1 0.4 0 0.6 1
8
 1 0 0 1 0.3 0 0.7 1
8
 1 0 0 1 0 0 1 1
8
 1 0 0 1 0.5 0 0.5 1
2
 0.03 1
2
 1 1.8e-07
2
 0.9999 0.0001
2
 0.999995 5e-06
2
 1 8e-08
2
 1 9e-08
2
 0.99999 1e-05
2
 0.99999 1e-05
2
 0.99975 0.00025
2
 0.999993 7e-06
2
 0.99995 5e-05
2
 1 4e-08
2
 0.99999 1e-05
2
 0.999999 1.4e-06
2
 0.999998 2e-06
2
 0.9999 0.0001
2
 0.999977 2.342e-05
2
 0.9999 0.0001
2
 0.99989 0.00011
2
 0.9999 0.0001
2
 1 1e-08
2
 0.99998 2e-05
2
 0.99998 2.042e-05
2
 0.99995 5e-05
2
 0.99974 0.00026
2
 1 1e-08
2
 0.9993 0.0007
2
 0.99988 0.00012
2
 1 1.1e-07
2
 0.99809 0.00191
2
 0.999996 3.64e-06
2
 0.999999 1.448e-06
2
 0.99999 1e-05
2
 0.999999 1.26e-06
2
 0.99998 2e-05
2
 0.99996 4e-05
2
 0.9999 0.0001
2
 0.99998 2e-05
2
 0.9998 0.0002
2
 0.9995 0.0005
2
 1 1e-08
2
 0.9999 0.0001
2
 0.9992 0.0008
2
 0.9999 0.0001
2
 1 1e-08
2
 0.99992 8e-05
2
 0.9995 0.0005
2
 0.9999 0.0001
2
 0.99989 0.00011
2
 0.99991 9e-05
2
 0.9996 0.0004
2
 0.999957 4.295e-05
2
 0.99995 5e-05
2
 1 6e-08
2
 0.9995 0.0005
2
 0.99998 2e-05
2
 0.9999 0.0001
2
 1 1.1e-07
2
 0.999999 1e-06
2
 0.9999 0.0001
2
 0.9995 0.0005
2
 0.9999 0.0001
2
 0.99995 5e-05
2
 0.99991 9e-05
2
 0.9998 0.0002
2
 0.9996 0.0004
2
 1 8e-08
2
 0.99998 2e-05
2
 0.99999 1e-05
2
 0.99986 0.00014
2
 0.99982 0.00018
2
 0.9999 0.0001
2
 0.999999 1e-06
2
 1 4e-08
2
 0.99995 5e-05
2
 0.99995 5e-05
2
 0.999999 6.9e-07
2
 0.9991 0.0009
2
 0.9998 0.0002
2
 0.9998 0.0002
2
 0.99984 0.00016
2
 0.99998 2e-05
2
 0.9999 0.0001
2
 0.99999 1e-05
2
 0.99995 5e-05
2
 0.999989 1.08e-05
2
 0.9975 0.0025
2
 0.9995 0.0005
2
 0.99994 6e-05
2
 0.9998 0.0002
2
 0.9999 0.0001
2
 0.9997 0.0003
2
 0.99991 9e-05
2
 0.99989 0.00011
2
 0.99993 7e-05
2
 0.999999 1e-06
2
 0.9999 0.0001
2
 0.9999 0.0001
2
 0.9999 0.0001
2
 0.99991 9e-05
2
 1 3.6e-07
2
 0.9999 0.0001
2
 0.999 0.001
2
 1 1e-08
2
 1 4e-08
2
 0.99989 0.00011
2
 0.9999 0.0001
2
 0.999999 6.6e-07
2
 0.9999 0.0001
2
 0.9999 0.0001
2
 1 1.7e-07
2
 0.999977 2.291e-05
2
 0.999999 1.2e-06
2
 0.996 0.004
2
 0.999 0.001
2
 0.999999 1e-06
2
 0.9999 0.0001
2
 0.999981 1.92e-05
2
 0.99989 0.00011
2
 0.999959 4.084e-05
2
 0.99975 0.00025
2
 0.995 0.005
2
 0.999999 1e-06
2
 0.99998 2.003e-05
2
 0.9985 0.0015
2
 0.9999 0.0001
2
 0.99987 0.00013
2
 0.99989 0.00011
2
 0.999998 2e-06
2
 0.9997 0.0003
2
 0.99995 5e-05
2
 0.99999 1e-05
2
 1 1e-08
2
 0.9995 0.0005
2
 0.9998 0.0002
2
 0.9998 0.0002
2
 1 2.8e-07
2
 0.999991 8.59e-06
2
 0.99995 5e-05
2
 1 1e-08
2
 0.9985 0.0015
2
 0.99998 2e-05
2
 0.999999 1e-06
2
 0.99999 1e-05
2
 0.99995 5e-05
2
 0.9991 0.0009
2
 0.9999 0.0001
2
 1 1e-08
2
 0.9999 0.0001
2
 0.999999 1e-06
2
 0.999995 5.23e-06
2
 0.9999 0.0001
2
 0.9995 0.0005
2
 0.999996 4e-06
2
 1 1.6e-07
2
 0.9999 0.0001
2
 0.99962 0.00038
2
 0.9999 0.0001
2
 0.9998 0.0002
2
 0.99998 2e-05
2
 0.9999 0.0001
2
 0.99989 0.00011
2
 0.9999 0.0001
2
 0.999969 3.12e-05
2
 0.999999 5.9e-07
2
 0.999999 1e-06
2
 0.9992 0.0008
2
 0.999993 6.77e-06
2
 0.9999 0.0001
2
 1 5e-08
2
 0.999982 1.82e-05
2
 0.9995 0.0005
2
 0.9995 0.0005
2
 0.99999 1e-05
2
 1 1.4e-07
2
 0.9998 0.0002
2
 0.999953 4.733e-05
2
 0.9994 0.0006
2
 0.99998 2e-05
2
 0.9999 0.0001
2
 0.9999 0.0001
2
 1 1e-08
2
 0.9999 0.0001
2
 0.9995 0.0005
2
 0.99994 6e-05
2
 1 1e-08
2
 0.99989 0.00011
2
 0.99991 9e-05
2
 0.99991 9e-05
2
 0.9999 0.0001
2
 0.999997 3.18e-06
2
 0.99987 0.00013
2
 1 1e-08
2
 0.9999 0.0001
2
 1 9e-08
2
 0.99995 5e-05
2
 1 1.1e-07
2
 0.99997 3e-05
2
 0.9995 0.0005
2
 1 2.9e-07
2
 1 6e-08
2
 1 2e-08
2
 0.999992 7.67e-06
2
 0.99994 6e-05
2
 0.999994 6e-06
2
 0.9999 0.0001
2
 0.9998 0.0002
2
 0.99989 0.00011
2
 0.99998 2e-05
2
 0.999999 1e-06
2
 0.99997 3e-05
2
 0.99997 3e-05
2
 0.999555 0.00044466
2
 0.999999 1e-06
2
 0.99995 5e-05
2
 0.999998 2.143e-06
2
 0.999999 1e-06
2
 1 5e-07
2
 0.99998 2e-05
2
 1 1e-08
2
 0.99989 0.00011
2
 1 1e-08
2
 0.999985 1.48e-05
2
 0.9996 0.0004
2
 0.999999 1e-06
2
 0.99995 5e-05
2
 0.9999 0.0001
2
 1 1e-08
2
 1 1e-08
2
 1 1.1e-07
2
 0.99997 3e-05
2
 1 1e-07
2
 1 1e-07
2
 0.9999 0.0001
2
 0.99997 3e-05
2
 0.99999 1e-05
2
 0.9997 0.0003
2
 0.99996 4e-05
2
 0.9999 0.0001
2
 0.999585 0.000415
2
 0.999991 9.42e-06
2
 0.9998 0.0002
2
 0.9997 0.0003
2
 0.9999 0.0001
2
 0.9996 0.0004
2
 0.99993 7e-05
2
 0.9995 0.0005
2
 0.99995 5e-05
2
 0.99998 2e-05
2
 1 3.3e-07
2
 0.99995 5e-05
2
 0.9999 0.0001
2
 0.999999 8.1e-07
2
 0.999 0.001
2
 0.99999 1e-05
2
 0.99995 5e-05
2
 0.99999 1e-05
2
 0.99989 0.00011
2
 0.99989 0.00011
2
 0.9999 0.0001
2
 0.9999 0.0001
2
 0.99975 0.00025
2
 0.9995 0.0005
2
 0.999996 3.67e-06
2
 0.9999 0.0001
2
 0.999999 1e-06
2
 0.999995 5.26e-06
2
 0.9985 0.0015
2
 0.999943 5.69e-05
2
 0.9999 0.0001
2
 0.9999 0.0001
2
 0.99999 9.61e-06
2
 0.999913 8.704e-05
2
 0.999999 9.9e-07
2
 0.99999 1e-05
2
 0.9999 0.0001
2
 0.99995 5e-05
2
 0.998 0.002
2
 1 6e-08
2
 0.999998 2e-06
2
 0.999999 1e-06
2
 0.99989 0.00011
2
 0.99995 5e-05
2
 0.9999 0.0001
2
 0.999964 3.587e-05
2
 0.99974 0.00026
2
 0.9994 0.0006
2
 0.99996 4e-05
2
 0.99989 0.00011
2
 0.99982 0.00018
2
 0.999995 5.24e-06
2
 0.9998 0.0002
2
 0.9999 0.0001
2
 0.99981 0.00019
2
 0.9999 0.0001
2
 0.9999 0.0001
2
 1 1e-08
2
 0.999998 2e-06
2
 1 1.2e-07
2
 1 1.7e-07
2
 0.9999 0.0001
2
 0.999991 8.64e-06
2
 0.999996 3.57e-06
2
 1 1.1e-07
2
 0.9999 0.0001
2
 0.99999 1e-05
2
 0.99996 4e-05
2
 0.9999 0.0001
2
 1 9e-08
2
 0.999973 2.7e-05
2
 0.99995 5e-05
2
 0.99999 1e-05
2
 1 1.1e-07
2
 0.9999 0.0001
2
 0.99999 1e-05
2
 1 2e-07
2
 0.999999 6e-07
2
 0.9991 0.0009
2
 1 1e-08
2
 1 1.6e-07
2
 0.9999 0.0001
2
 0.99985 0.00015
2
 1 2e-08
2
 0.999999 1e-06
2
 0.99995 5e-05
2
 0.9998 0.0002
2
 0.9999 0.0001
2
 0.9998 0.0002
2
 0.9995 0.0005
2
 1 1e-08
2
 0.99999 1e-05
2
 0.999997 2.88e-06
2
 0.9995 0.0005
2
 0.99922 0.00078
2
 0.9998 0.0002
2
 0.9999 0.0001
2
 1 1e-08
2
 0.99995 5e-05
2
 0.9999 0.0001
2
 0.99989 0.00011
2
 0.9998 0.0002
2
 1 5e-07
2
 0.9994 0.0006
2
 0.99999 1e-05
2
 0.99975 0.00025
2
 0.9999 0.0001
2
 0.9995 0.0005
2
 0.99995 5e-05
2
 0.99999 1e-05
2
 0.999999 1e-06
2
 1 7e-08
2
 0.9995 0.0005
2
 0.99984 0.00016
2
 0.999999 1e-06
2
 0.9996 0.0004
2
 0.9999 0.0001
2
 0.99997 3e-05
2
 0.999 0.001
2
 0.996 0.004
2
 0.999998 2e-06
2
 1 4e-08
2
 0.9999 0.0001
2
 0.99998 2e-05
2
 0.99995 5e-05
2
 0.99984 0.00016
2
 0.9965 0.0035
2
 0.9999 0.0001
2
 0.9928 0.0072
2
 0.999998 2.24e-06
2
 0.99975 0.00025
2
 0.99985 0.00015
2
 0.99996 4e-05
2
 0.9999 0.0001
2
 0.999999 1e-06
2
 0.9998 0.0002
2
 0.999838 0.0001616
2
 0.9999 0.0001
2
 0.99995 5e-05
2
 1 1e-08
2
 0.9988 0.0012
2
 0.99995 5e-05
2
 0.9995 0.0005
2
 1 2.3e-07
2
 0.999979 2.06e-05
2
 0.999999 6.2e-07
2
 0.99998 2e-05
2
 0.9999 0.0001
2
 0.99974 0.00026
2
 1 1.2e-07
2
 0.999999 6.6e-07
2
 0.99998 2e-05
2
 0.999921 7.933e-05
2
 0.999994 6.29e-06
2
 0.99985 0.00015
2
 0.9996 0.0004
2
 0.9997 0.0003
2
 0.99998 2e-05
2
 0.999997 2.82e-06
2
 0.99999 1e-05
2
 0.9999 0.0001
2
 0.9999 0.0001
2
 1 2e-08
2
 1 2e-08
2
 1 3.1e-07
2
 0.9994 0.0006
2
 0.9995 0.0005
2
 0.9999 0.0001
2
 0.999907 9.332e-05
2
 0.999998 2e-06
2
 0.9998 0.0002
2
 1 1e-08
2
 0.9994 0.0006
2
 0.999993 6.69e-06
2
 0.999999 5.4e-07
2
 0.999993 6.53e-06
2
 0.999999 1e-06
2
 0.999999 1e-06
2
 0.99995 5e-05
2
 0.999992 8e-06
2
 1 4e-08
2
 0.9999 0.0001
2
 0.99975 0.00025
2
 0.99764 0.00236
2
 0.99999 1e-05
2
 0.9995 0.0005
2
 0.9999 0.0001
2
 1 2.9e-07
2
 1 1.1e-07
2
 0.9999 0.0001
2
 0.999994 6.39e-06
2
 0.9999 0.0001
2
 0.99999 1e-05
2
 0.99999 1e-05
2
 0.999921 7.93e-05
2
 0.9995 0.0005
2
 0.9999 0.0001
2
 0.99999 1e-05
2
 0.999722 0.0002777
2
 0.99997 3e-05
2
 0.9995 0.0005
2
 0.99995 5e-05
2
 0.99997 3e-05
2
 0.9997 0.0003
2
 0.9995 0.0005
2
 0.9999 0.0001
2
 1 5e-07
2
 0.9999 0.0001
2
 1 1e-08
2
 0.9998 0.0002
2
 0.9991 0.0009
2
 0.9995 0.0005
2
 1 1e-08
2
 0.99994 6.019e-05
2
 0.9999 0.0001
2
 0.999 0.001
2
 0.9995 0.0005
2
 0.99875 0.00125
2
 0.99989 0.00011
2
 0.99989 0.00011
2
 0.999999 1e-06
2
 0.9999 0.0001
2
 0.99997 3e-05
2
 1 1.1e-07
2
 0.9999 0.0001
2
 1 4e-08
2
 0.9998 0.0002
2
 0.99997 3e-05
2
 0.999974 2.595e-05
2
 1 5e-08
2
 0.9994 0.0006
2
 0.99997 3e-05
2
 0.999982 1.776e-05
2
 1 2.3e-07
2
 0.99998 2e-05
2
 1 5e-07
1
 1

